30
5
2032675660
0
391
47 92 54 43 61 
1
1079
33 37 6 20 50 
2
1490
99 12 95 96 85 
3
325
62 73 24 47 41 
4
1102
93 56 23 50 16 
5
1506
58 24 18 5 41 
6
414
32 52 87 25 5 
7
1562
41 76 98 45 44 
8
1461
7 72 31 11 85 
9
1593
16 64 14 38 2 
10
1167
47 83 37 16 59 
11
1330
90 51 27 84 85 
12
1500
35 11 28 78 44 
13
563
58 9 1 29 75 
14
1037
30 94 12 87 51 
15
1190
9 10 76 90 54 
16
1041
24 50 69 72 4 
17
525
74 48 65 99 87 
18
348
95 68 49 58 80 
19
753
27 2 41 97 68 
20
1384
67 51 16 29 37 
21
712
37 73 59 7 87 
22
381
25 91 16 76 35 
23
1334
1 6 73 82 38 
24
450
63 92 58 68 20 
25
1014
75 50 46 12 75 
26
964
2 61 53 35 52 
27
827
28 72 71 85 61 
28
513
25 9 82 32 79 
29
602
35 47 84 61 97 
